32	0

0	4	3	7	2	6
4	4	5	9	13	14
1	1	4
1	5	5	8	9	13	14
5	3	10	11	12
6	5	10	11	12	13	14
5	3	9	13	14
7	3	10	11	12
4	3	10	11	12
1	1	15
6	4	16	17	18	20
10	2	19	24
8	1	15
7	1	15
1	4	16	17	18	20
3	2	19	24
7	4	21	25	27	28
5	7	21	22	23	25	26	27	28
1	7	21	22	23	25	26	27	28
8	3	25	27	28
6	1	29
10	2	30	31
10	2	30	31
4	3	25	27	28
9	1	30
6	1	29
9	1	30
5	1	29
1	2	30	31
1	1	32
3	1	32
0	0
